/* Objective function */
min: +C17 +C18 +C19 +C20;

/* Constraints */
+116 C1 +148 C2 +180 C3 +170 C4 -194 C17 <= 0;
+116 C5 +148 C6 +180 C7 +170 C8 -194 C18 <= 0;
+116 C9 +148 C10 +180 C11 +170 C12 -194 C19 <= 0;
+116 C13 +148 C14 +180 C15 +170 C16 -194 C20 <= 0;
+6 C1 +7 C2 +11 C3 +C4 -11 C17 <= 0;
+6 C5 +7 C6 +11 C7 +C8 -11 C18 <= 0;
+6 C9 +7 C10 +11 C11 +C12 -11 C19 <= 0;
+6 C13 +7 C14 +11 C15 +C16 -11 C20 <= 0;
+C1 +C5 +C9 +C13 = 1;
+C2 +C6 +C10 +C14 = 1;
+C3 +C7 +C11 +C15 = 1;
+C4 +C8 +C12 +C16 = 1;

/* Variable bounds */
C1 <= 1;
C2 <= 1;
C3 <= 1;
C4 <= 1;
C5 <= 1;
C6 <= 1;
C7 <= 1;
C8 <= 1;
C9 <= 1;
C10 <= 1;
C11 <= 1;
C12 <= 1;
C13 <= 1;
C14 <= 1;
C15 <= 1;
C16 <= 1;
C17 <= 1;
C18 <= 1;
C19 <= 1;
C20 <= 1;

/* Integer definitions */
int C1,C2,C3,C4,C5,C6,C7,C8,C9,C10,C11,C12,C13,C14,C15,C16,C17,C18,C19,C20;
